50 25
   1   -1   -1   -1    8    8   -1   -1   24   -1   -1   -1   -1   -1   -1    5   14   -1   11   -1   -1   -1   -1   -1   -1   -1   -1   -1   -1   -1   -1   -1   13    2   21   -1   -1   -1   11   -1    0   -1   -1   -1   -1   -1   -1   -1   -1   13 
   0    1   -1    8   -1   -1   -1   16   -1   -1   -1   16   -1   -1   -1   -1   -1   -1   13   14   -1   -1   -1   -1   23   -1   -1   -1   -1   -1   -1   16   -1   -1   -1   -1   -1   -1   -1   -1   -1   -1   -1    1    6   21   -1    6   -1   -1 
   0    0    1   -1   -1   -1   -1   -1   -1   -1   -1   -1   -1   -1   11   -1   -1   -1   -1   -1   -1   -1   -1   -1   -1   10   -1   -1   -1   -1   -1   -1   -1   -1   -1   -1   -1   -1    5   -1   -1   10   -1   -1   -1   -1   -1   -1   -1   -1 
   0    0    0    1   -1   -1   -1   -1   -1   -1   -1   -1   -1   -1   -1   -1   -1   -1   -1   -1   -1   -1   -1   -1   -1   -1   -1   -1   -1   -1   -1    0   -1   -1   -1   11   -1   -1   -1   -1   -1   -1   -1   -1   16   -1   -1   -1   -1   -1 
   0    0    0    0    1   -1   -1   -1   -1   -1   -1   -1    7   -1   23   -1   24   -1    1    0   -1   10    4   -1   10   -1   -1   23   -1   -1   -1   -1    1   -1   -1   -1   -1   -1   -1    0   -1   -1   -1   15   -1   -1   -1   -1   -1   -1 
   0    0    0    0    0    1   -1   -1   -1   21   16   -1   -1   -1   -1   -1   -1   -1   -1   -1   11   -1   -1    7   -1   -1    4   -1   -1   -1   -1   -1   -1   -1   -1   -1   -1    1   -1   -1   -1   -1   -1   -1   -1   -1    4    2   16   -1 
   0    0    0    0    0    0    1   -1   -1   -1   -1   -1    5   -1   10   -1   -1   22   -1   -1   -1   -1   18   -1   -1   -1   -1   -1   -1   -1   24   -1    0   -1   -1   -1   -1   -1   -1   -1   -1   -1   23   -1   -1   19   -1   -1   -1   -1 
   0    0    0    0    0    0    0    1   -1   -1   -1   -1   -1   -1   -1   -1   -1   -1   -1   -1   -1   -1   -1   -1   -1   -1   -1   -1   16   -1   -1   -1   -1   -1   13   -1   -1   15   -1   -1   -1   -1   -1   13   -1   -1   18   -1   -1   -1 
   0    0    0    0    0    0    0    0    1   -1   -1   -1   22   -1   -1   -1   -1   -1   -1   -1   -1    7   -1   -1   -1    6   -1   -1   18   -1   -1   11   -1   -1   -1   -1   -1   -1   -1    9   -1   -1   -1   -1   -1   -1   -1   -1   13   -1 
   0    0    0    0    0    0    0    0    0    1   -1    0   -1   -1   -1   -1   -1   -1   -1   -1   -1   -1   19   -1   -1   -1   -1   -1   -1   -1   -1   -1   21   -1   -1   10   -1   -1   -1   -1   -1   -1   21   -1   -1   -1   -1   -1    0   -1 
   0    0    0    0    0    0    0    0    0    0    1   -1    0   -1   -1   -1   -1   -1   -1   -1   -1    6   -1   -1   -1   24   -1   -1   -1   -1   10   -1   -1   -1    0   -1   -1   17   -1   -1   -1   -1   -1   -1   -1   23   -1   23    7   -1 
   0    0    0    0    0    0    0    0    0    0    0    1   -1   -1   -1    4   -1   -1   -1   -1   -1    5   -1   -1   -1   -1   -1   -1   -1   -1   11   18   -1   -1   15   -1    8   -1   20   -1   -1   -1   24   -1   -1    1   -1   -1   18   -1 
   0    0    0    0    0    0    0    0    0    0    0    0    1   12   -1   -1   -1   -1   -1   -1   -1   -1   11   -1   -1   -1   -1   -1   -1   -1   -1   -1   -1   -1   -1   -1    9   -1   20   -1   -1   -1   -1   -1   14   -1   -1   -1   23   -1 
   0    0    0    0    0    0    0    0    0    0    0    0    0    1   -1   -1   -1   22   -1   -1   -1   -1   -1   -1   23   -1   -1   -1   -1   -1   19   -1   -1   -1   -1   -1   -1   -1   -1   -1   -1   -1   -1   -1   -1   -1   -1   -1   11   -1 
   0    0    0    0    0    0    0    0    0    0    0    0    0    0    1   19   -1   -1   -1   -1   -1   -1   -1   -1   -1   -1   -1   -1   -1   -1   -1   -1   -1   -1   -1   -1   -1   -1   19   -1   -1   -1   -1   -1   -1   -1   -1   -1   -1   -1 
   0    0    0    0    0    0    0    0    0    0    0    0    0    0    0    1   -1   -1   -1   -1   -1   -1   -1    3   -1   -1   -1   -1   -1   16   -1   -1   -1   -1   -1   -1   -1   -1    5   -1   -1   -1   -1   -1   -1   -1   -1   -1   -1   18 
   0    0    0    0    0    0    0    0    0    0    0    0    0    0    0    0    1   -1   -1   -1    8   -1   -1   -1   -1   17   -1   -1   -1   -1   -1   -1   -1   -1   -1    1   -1   -1   -1   14   -1   -1   -1   -1   -1   -1   -1   -1    4   -1 
   0    0    0    0    0    0    0    0    0    0    0    0    0    0    0    0    0    1   -1   -1   -1   -1   -1   16   -1    9   12   -1   11   -1   -1   -1   -1   -1   -1   -1   -1   -1   21   -1   -1   20   -1   -1   23   -1   -1   -1   -1   -1 
   0    0    0    0    0    0    0    0    0    0    0    0    0    0    0    0    0    0    1   -1   -1   -1   -1   22   -1   -1   -1   -1   -1   -1   -1   -1   -1   -1   -1   -1   -1   -1    9   -1   -1   -1   -1   -1    6   -1   -1   -1   -1   10 
   0    0    0    0    0    0    0    0    0    0    0    0    0    0    0    0    0    0    0    1   24   -1   -1   -1    8   -1   -1   -1   17   23   -1   -1   -1   -1   12   -1   -1   -1   24   -1   -1   -1   -1   -1   -1    0   17   24   -1   -1 
   0    0    0    0    0    0    0    0    0    0    0    0    0    0    0    0    0    0    0    0    0   -1   -1   -1   -1   -1   -1   -1   -1   -1   -1   -1   -1   -1   -1   -1    6   -1    8   -1   -1   -1   13   -1   -1   -1   -1   -1   -1   -1 
   0    0    0    0    0    0    0    0    0    0    0    0    0    0    0    0    0    0    0    0    0    0   -1   -1   -1   -1   -1   -1   -1   -1   -1   -1   -1    8   -1    0   -1   -1   -1   -1   -1   -1   -1   -1   -1   -1   -1   -1   -1   -1 
   0    0    0    0    0    0    0    0    0    0    0    0    0    0    0    0    0    0    0    0    0    0    0   -1   -1   -1   -1   -1   -1   -1   -1    0   -1   -1   -1   -1   -1   -1    6   -1   -1   -1   17   -1   -1    0   -1   -1    0   -1 
   0    0    0    0    0    0    0    0    0    0    0    0    0    0    0    0    0    0    0    0    0    0    0    0   -1   -1   -1   20   21   14   16   -1   12   -1   -1   -1   10   -1   -1   -1   -1   -1    1   10   -1   -1   -1   -1   -1   -1 
   0    0    0    0    0    0    0    0    0    0    0    0    0    0    0    0    0    0    0    0    0    0    0    0    0   -1   -1   -1   -1   -1   -1   -1    6   20   -1   14   -1   -1   -1   -1   -1   -1   -1    4   -1   -1   21   -1   -1   22 
   0    0    0    0    0    0    0    0    0    0    0    0    0    0    0    0    0    0    0    0    0    0    0    0    0    0   -1   -1   -1   12   -1    1   -1   -1   -1   -1    9   -1   23   11   -1   -1   10   -1   -1   -1   -1   -1   -1   -1 
   0    0    0    0    0    0    0    0    0    0    0    0    0    0    0    0    0    0    0    0    0    0    0    0    0    0    0   -1    1   -1   -1   -1   -1   -1   -1   -1   -1   17   -1   -1   -1   -1   -1   -1   -1   -1    6   -1    0   -1 
   0    0    0    0    0    0    0    0    0    0    0    0    0    0    0    0    0    0    0    0    0    0    0    0    0    0    0    0   -1   -1   -1   -1   -1   -1    0    1    4   -1   -1   -1   19   -1    1   -1   -1   -1   -1    7   -1   -1 
   0    0    0    0    0    0    0    0    0    0    0    0    0    0    0    0    0    0    0    0    0    0    0    0    0    0    0    0    0   -1   -1   21   11    0    5   20   15    0   10   -1    2   -1   -1   -1   11   -1    4   -1   -1   -1 
   0    0    0    0    0    0    0    0    0    0    0    0    0    0    0    0    0    0    0    0    0    0    0    0    0    0    0    0    0    0   -1   -1   -1   -1   -1   23   -1   12   -1   -1   24   -1   -1   -1   -1   -1   -1   -1   -1   10 
   0    0    0    0    0    0    0    0    0    0    0    0    0    0    0    0    0    0    0    0    0    0    0    0    0    0    0    0    0    0    0   -1   -1   -1   -1    8   -1   -1   -1   -1   -1   -1   15   -1    7    1   -1   -1   -1   -1 
   0    0    0    0    0    0    0    0    0    0    0    0    0    0    0    0    0    0    0    0    0    0    0    0    0    0    0    0    0    0    0    0   -1   -1   -1   -1   -1   -1   24    7   19   17   -1   -1   -1   -1   20   -1   -1   -1 
   0    0    0    0    0    0    0    0    0    0    0    0    0    0    0    0    0    0    0    0    0    0    0    0    0    0    0    0    0    0    0    0    0   -1    1   -1   -1   -1   -1   20   -1   -1   -1   -1   -1   -1   -1   -1   20   -1 
   0    0    0    0    0    0    0    0    0    0    0    0    0    0    0    0    0    0    0    0    0    0    0    0    0    0    0    0    0    0    0    0    0    0   -1   -1   -1   -1    5   -1   -1   -1   -1   -1    1   -1   -1   -1   -1   -1 
   0    0    0    0    0    0    0    0    0    0    0    0    0    0    0    0    0    0    0    0    0    0    0    0    0    0    0    0    0    0    0    0    0    0    0   -1   19   14   -1   -1   -1   22   -1   -1   -1   -1   -1   -1   -1   -1 
   0    0    0    0    0    0    0    0    0    0    0    0    0    0    0    0    0    0    0    0    0    0    0    0    0    0    0    0    0    0    0    0    0    0    0    0   -1   -1   -1   -1   -1   -1   -1   -1    7    5   -1   -1    0   -1 
   0    0    0    0    0    0    0    0    0    0    0    0    0    0    0    0    0    0    0    0    0    0    0    0    0    0    0    0    0    0    0    0    0    0    0    0    0   -1   -1   -1    9   -1   -1   13   -1   -1   -1    4   -1   -1 
   0    0    0    0    0    0    0    0    0    0    0    0    0    0    0    0    0    0    0    0    0    0    0    0    0    0    0    0    0    0    0    0    0    0    0    0    0    0    7   17   -1   -1   -1   -1   -1   -1   -1   -1    3   -1 
   0    0    0    0    0    0    0    0    0    0    0    0    0    0    0    0    0    0    0    0    0    0    0    0    0    0    0    0    0    0    0    0    0    0    0    0    0    0    0   -1   -1   -1   -1   19   -1   -1   -1   -1   -1   -1 
   0    0    0    0    0    0    0    0    0    0    0    0    0    0    0    0    0    0    0    0    0    0    0    0    0    0    0    0    0    0    0    0    0    0    0    0    0    0    0    0   10   21   -1   -1   -1   -1    1   -1   -1   -1 
   0    0    0    0    0    0    0    0    0    0    0    0    0    0    0    0    0    0    0    0    0    0    0    0    0    0    0    0    0    0    0    0    0    0    0    0    0    0    0    0    0   -1   -1   -1   -1    5   -1   -1   17   16 
   0    0    0    0    0    0    0    0    0    0    0    0    0    0    0    0    0    0    0    0    0    0    0    0    0    0    0    0    0    0    0    0    0    0    0    0    0    0    0    0    0    0   -1   -1   -1   -1   -1   -1   -1   -1 
   0    0    0    0    0    0    0    0    0    0    0    0    0    0    0    0    0    0    0    0    0    0    0    0    0    0    0    0    0    0    0    0    0    0    0    0    0    0    0    0    0    0    0   -1   -1   -1   -1   -1   -1   -1 
   0    0    0    0    0    0    0    0    0    0    0    0    0    0    0    0    0    0    0    0    0    0    0    0    0    0    0    0    0    0    0    0    0    0    0    0    0    0    0    0    0    0    0    0   -1   -1   -1   -1   -1   -1 
   0    0    0    0    0    0    0    0    0    0    0    0    0    0    0    0    0    0    0    0    0    0    0    0    0    0    0    0    0    0    0    0    0    0    0    0    0    0    0    0    0    0    0    0    0   -1   -1   -1   -1   -1 
   0    0    0    0    0    0    0    0    0    0    0    0    0    0    0    0    0    0    0    0    0    0    0    0    0    0    0    0    0    0    0    0    0    0    0    0    0    0    0    0    0    0    0    0    0    0   -1   -1   -1   19 
   0    0    0    0    0    0    0    0    0    0    0    0    0    0    0    0    0    0    0    0    0    0    0    0    0    0    0    0    0    0    0    0    0    0    0    0    0    0    0    0    0    0    0    0    0    0    0   19   -1   -1 
   0    0    0    0    0    0    0    0    0    0    0    0    0    0    0    0    0    0    0    0    0    0    0    0    0    0    0    0    0    0    0    0    0    0    0    0    0    0    0    0    0    0    0    0    0    0    0    0   -1   -1 
   0    0    0    0    0    0    0    0    0    0    0    0    0    0    0    0    0    0    0    0    0    0    0    0    0    0    0    0    0    0    0    0    0    0    0    0    0    0    0    0    0    0    0    0    0    0    0    0    0   -1 
   0    0    0    0    0    0    0    0    0    0    0    0    0    0    0    0    0    0    0    0    0    0    0    0    0    0    0    0    0    0    0    0    0    0    0    0    0    0    0    0    0    0    0    0    0    0    0    0    0    0 
